dataset/large-129.in
50
50.0
0 49 4.08 0.5
1 48 4.06 0.5
2 47 4.04 0.5
3 46 4.02 0.5
4 45 4.0 0.5
5 44 4.09 0.5
6 43 4.07 0.5
7 42 4.05 0.5
8 41 4.02 0.5
9 40 4.0 0.5
10 39 4.1 0.5
11 38 4.08 0.5
12 37 4.05 0.5
13 36 4.03 0.5
14 35 4.0 0.5
15 34 4.12 0.5
16 33 4.09 0.5
17 32 4.06 0.5
18 31 4.03 0.5
19 30 4.0 0.5
20 29 4.14 0.5
21 28 4.11 0.5
22 27 4.07 0.5
23 26 4.04 0.5
24 25 4.0 0.5
25 24 4.17 0.5
26 23 4.13 0.5
27 22 4.09 0.5
28 21 4.05 0.5
29 20 4.0 0.5
30 19 4.21 0.5
31 18 4.17 0.5
32 17 4.12 0.5
33 16 4.06 0.5
34 15 4.0 0.5
35 14 4.29 0.5
36 13 4.23 0.5
37 12 4.17 0.5
38 11 4.09 0.5
39 10 4.0 0.5
40 9 4.44 0.5
41 8 4.38 0.5
42 7 4.29 0.5
43 6 4.17 0.5
44 5 4.0 0.5
45 4 5.0 0.5
46 3 5.0 0.5
47 2 5.0 0.5
48 1 5.0 0.5
